\ This file has been generated by DOcplex
\ ENCODING=ISO-8859-1
\Problem name: Orandom11442_6.lp

Minimize
 obj: - 32.000007136652 x0 - 16.000003568326 x1 - 8.000001784163 x2
      - 28.000007136652 x3 - 14.000003568326 x4 - 7.000001784163 x5 + [
      16.000004078087 x0^2 + 16.000004078087 x0*x1 + 8.000002039044 x0*x2
      + 32.000008156174 x0*x3 + 16.000004078087 x0*x4 + 8.000002039044 x0*x5
      + 4.000001019522 x1^2 + 4.000001019522 x1*x2 + 16.000004078087 x1*x3
      + 8.000002039044 x1*x4 + 4.000001019522 x1*x5 + 1.000000254880 x2^2
      + 8.000002039044 x2*x3 + 4.000001019522 x2*x4 + 2.000000509761 x2*x5
      + 112.000004078087 x3^2 + 112.000004078087 x3*x4 + 56.000002039044 x3*x5
      + 28.000001019522 x4^2 + 28.000001019522 x4*x5 + 7.000000254880 x5^2 ]/2 +
      24.500006244571
Subject To

Bounds
 0 <= x0 <= 1
 0 <= x1 <= 1
 0 <= x2 <= 1
 0 <= x3 <= 1
 0 <= x4 <= 1
 0 <= x5 <= 1

Binaries
 x0 x1 x2 x3 x4 x5
End
